Route #1: 2
Route #2: 11 28
Route #3: 17
Route #4: 15 25 19 31 4 18
Route #5: 21 26
Route #6: 14 13 7 29
Route #7: 27 24 5 20
Route #8: 9 10 8 22 3 1 12 16 23
Route #9: 30
Route #10: 6

Cost: 2083.958420642118
